p cnf 100 150
1 9 0
1 4 0
1 82 0
2 5 0
2 59 0
2 61 0
3 21 0
3 76 0
3 60 0
4 86 0
4 7 0
5 82 0
5 32 0
6 99 0
6 75 0
6 15 0
7 91 0
7 99 0
8 28 0
8 12 0
8 11 0
9 98 0
9 13 0
10 73 0
10 12 0
10 94 0
11 67 0
11 89 0
12 45 0
13 64 0
13 51 0
14 52 0
14 96 0
14 94 0
15 81 0
15 63 0
16 89 0
16 65 0
16 90 0
17 41 0
17 90 0
17 75 0
18 81 0
18 44 0
18 85 0
19 67 0
19 80 0
19 24 0
20 57 0
20 22 0
20 50 0
21 26 0
21 40 0
22 42 0
22 98 0
23 31 0
23 50 0
23 69 0
24 48 0
24 59 0
25 90 0
25 77 0
25 38 0
26 93 0
26 96 0
27 69 0
27 35 0
27 81 0
28 100 0
28 63 0
29 70 0
29 94 0
29 75 0
30 73 0
30 83 0
30 88 0
31 53 0
31 68 0
32 87 0
32 55 0
33 62 0
33 47 0
33 72 0
34 43 0
34 57 0
34 47 0
35 86 0
35 78 0
36 49 0
36 91 0
36 66 0
37 83 0
37 64 0
37 84 0
38 44 0
38 45 0
39 40 0
39 79 0
39 46 0
40 65 0
41 68 0
41 56 0
42 43 0
42 53 0
43 79 0
44 63 0
45 49 0
46 52 0
46 85 0
47 95 0
48 76 0
48 62 0
49 61 0
50 54 0
51 98 0
51 83 0
52 76 0
53 74 0
54 85 0
54 68 0
55 71 0
55 89 0
56 97 0
56 67 0
57 58 0
58 80 0
58 95 0
59 69 0
60 74 0
60 99 0
61 72 0
62 84 0
64 82 0
65 88 0
66 96 0
66 97 0
70 87 0
70 92 0
71 77 0
71 72 0
73 92 0
74 79 0
77 95 0
78 100 0
78 87 0
80 93 0
84 93 0
86 100 0
88 91 0
92 97 0
g -61